30
1 0 4
2 0 8
2 1 1
3 0 5
3 1 12
3 2 5
4 0 5
4 1 10
4 2 4
4 3 7
5 0 10
5 1 12
5 2 9
5 3 1
5 4 2
6 0 3
6 1 2
6 2 8
6 3 13
6 4 5
6 5 5
7 0 2
7 1 1
7 2 5
7 3 1
7 4 4
7 5 12
7 6 3
8 0 10
8 1 13
8 2 2
8 3 3
8 4 7
8 5 8
8 6 3
8 7 13
9 0 10
9 1 1
9 2 2
9 3 7
9 4 14
9 5 7
9 6 1
9 7 14
9 8 12
10 0 11
10 1 1
10 2 5
10 3 9
10 4 1
10 5 7
10 6 13
10 7 9
10 8 13
10 9 2
11 0 8
11 1 4
11 2 1
11 3 5
11 4 11
11 5 11
11 6 11
11 7 10
11 8 3
11 9 13
11 10 12
12 0 10
12 1 10
12 2 3
12 3 14
12 4 11
12 5 9
12 6 7
12 7 11
12 8 2
12 9 9
12 10 2
12 11 12
13 0 14
13 1 6
13 2 6
13 3 1
13 4 5
13 5 10
13 6 12
13 7 6
13 8 10
13 9 2
13 10 10
13 11 4
13 12 11
14 0 11
14 1 10
14 2 14
14 3 7
14 4 4
14 5 12
14 6 14
14 7 14
14 8 2
14 9 8
14 10 7
14 11 2
14 12 2
14 13 2
15 0 2
15 1 2
15 2 10
15 3 9
15 4 8
15 5 13
15 6 12
15 7 12
15 8 10
15 9 1
15 10 2
15 11 6
15 12 3
15 13 1
15 14 1
16 0 11
16 1 11
16 2 12
16 3 5
16 4 14
16 5 8
16 6 11
16 7 14
16 8 14
16 9 6
16 10 13
16 11 9
16 12 2
16 13 8
16 14 10
16 15 2
17 0 6
17 1 9
17 2 13
17 3 2
17 4 8
17 5 3
17 6 5
17 7 4
17 8 13
17 9 10
17 10 4
17 11 9
17 12 3
17 13 1
17 14 1
17 15 6
17 16 2
18 0 8
18 1 11
18 2 12
18 3 6
18 4 9
18 5 14
18 6 8
18 7 13
18 8 1
18 9 9
18 10 1
18 11 13
18 12 14
18 13 12
18 14 7
18 15 8
18 16 13
18 17 7
19 0 8
19 1 6
19 2 14
19 3 11
19 4 14
19 5 4
19 6 12
19 7 1
19 8 8
19 9 3
19 10 3
19 11 7
19 12 5
19 13 12
19 14 13
19 15 14
19 16 10
19 17 9
19 18 10
20 0 13
20 1 4
20 2 6
20 3 6
20 4 7
20 5 2
20 6 11
20 7 12
20 8 8
20 9 2
20 10 8
20 11 10
20 12 1
20 13 5
20 14 8
20 15 1
20 16 14
20 17 8
20 18 14
20 19 5
21 0 10
21 1 3
21 2 11
21 3 13
21 4 6
21 5 14
21 6 2
21 7 14
21 8 1
21 9 14
21 10 9
21 11 1
21 12 2
21 13 5
21 14 4
21 15 3
21 16 2
21 17 11
21 18 4
21 19 14
21 20 2
22 0 4
22 1 2
22 2 4
22 3 2
22 4 6
22 5 3
22 6 3
22 7 8
22 8 13
22 9 9
22 10 3
22 11 8
22 12 3
22 13 6
22 14 11
22 15 7
22 16 5
22 17 5
22 18 13
22 19 9
22 20 12
22 21 9
23 0 4
23 1 4
23 2 2
23 3 13
23 4 8
23 5 3
23 6 8
23 7 8
23 8 2
23 9 6
23 10 14
23 11 8
23 12 12
23 13 1
23 14 3
23 15 7
23 16 4
23 17 1
23 18 14
23 19 13
23 20 9
23 21 14
23 22 2
24 0 9
24 1 3
24 2 10
24 3 4
24 4 13
24 5 9
24 6 7
24 7 13
24 8 4
24 9 9
24 10 12
24 11 12
24 12 9
24 13 11
24 14 3
24 15 3
24 16 2
24 17 11
24 18 10
24 19 9
24 20 8
24 21 11
24 22 4
24 23 9
25 0 4
25 1 3
25 2 13
25 3 2
25 4 13
25 5 9
25 6 4
25 7 13
25 8 12
25 9 13
25 10 6
25 11 3
25 12 2
25 13 13
25 14 2
25 15 9
25 16 5
25 17 5
25 18 1
25 19 6
25 20 5
25 21 3
25 22 10
25 23 12
25 24 2
26 0 1
26 1 4
26 2 4
26 3 3
26 4 2
26 5 14
26 6 13
26 7 12
26 8 12
26 9 2
26 10 5
26 11 9
26 12 2
26 13 7
26 14 1
26 15 5
26 16 1
26 17 2
26 18 5
26 19 2
26 20 3
26 21 13
26 22 12
26 23 10
26 24 3
26 25 11
27 0 8
27 1 9
27 2 3
27 3 12
27 4 7
27 5 11
27 6 8
27 7 10
27 8 12
27 9 14
27 10 4
27 11 3
27 12 6
27 13 5
27 14 3
27 15 7
27 16 11
27 17 4
27 18 8
27 19 8
27 20 3
27 21 2
27 22 12
27 23 5
27 24 1
27 25 12
27 26 5
28 0 13
28 1 13
28 2 1
28 3 10
28 4 8
28 5 7
28 6 5
28 7 4
28 8 8
28 9 6
28 10 8
28 11 8
28 12 9
28 13 14
28 14 6
28 15 13
28 16 7
28 17 10
28 18 1
28 19 11
28 20 1
28 21 4
28 22 12
28 23 3
28 24 12
28 25 5
28 26 1
28 27 14
29 0 11
29 1 9
29 2 11
29 3 12
29 4 12
29 5 6
29 6 3
29 7 11
29 8 3
29 9 1
29 10 14
29 11 4
29 12 6
29 13 9
29 14 3
29 15 7
29 16 8
29 17 13
29 18 4
29 19 11
29 20 2
29 21 5
29 22 11
29 23 2
29 24 9
29 25 6
29 26 4
29 27 9
29 28 7
